c File: data_files/evolved_graphs/g0597.col
c
c Auto generated graph
c
p edge 100 2290
e 1 5
e 1 7
e 1 9
e 1 12
e 1 13
e 1 15
e 1 16
e 1 17
e 1 19
e 1 20
e 1 25
e 1 26
e 1 29
e 1 30
e 1 31
e 1 33
e 1 34
e 1 36
e 1 37
e 1 38
e 1 39
e 1 43
e 1 44
e 1 49
e 1 51
e 1 52
e 1 53
e 1 56
e 1 57
e 1 58
e 1 59
e 1 60
e 1 61
e 1 66
e 1 67
e 1 69
e 1 70
e 1 72
e 1 76
e 1 80
e 1 83
e 1 85
e 1 91
e 1 93
e 1 95
e 1 100
e 2 3
e 2 4
e 2 5
e 2 6
e 2 9
e 2 10
e 2 14
e 2 15
e 2 21
e 2 22
e 2 23
e 2 26
e 2 29
e 2 30
e 2 34
e 2 37
e 2 38
e 2 41
e 2 42
e 2 46
e 2 47
e 2 48
e 2 49
e 2 52
e 2 53
e 2 56
e 2 58
e 2 60
e 2 61
e 2 62
e 2 65
e 2 70
e 2 71
e 2 74
e 2 76
e 2 81
e 2 83
e 2 85
e 2 87
e 2 88
e 2 89
e 2 92
e 2 94
e 2 95
e 3 9
e 3 10
e 3 11
e 3 13
e 3 14
e 3 15
e 3 17
e 3 18
e 3 22
e 3 25
e 3 28
e 3 32
e 3 33
e 3 35
e 3 39
e 3 40
e 3 41
e 3 42
e 3 44
e 3 45
e 3 47
e 3 48
e 3 54
e 3 55
e 3 56
e 3 58
e 3 60
e 3 63
e 3 66
e 3 67
e 3 69
e 3 70
e 3 73
e 3 74
e 3 76
e 3 78
e 3 81
e 3 84
e 3 86
e 3 87
e 3 88
e 3 89
e 3 90
e 3 91
e 3 92
e 3 95
e 3 96
e 3 97
e 4 5
e 4 7
e 4 8
e 4 9
e 4 10
e 4 11
e 4 12
e 4 13
e 4 14
e 4 17
e 4 19
e 4 21
e 4 22
e 4 23
e 4 24
e 4 25
e 4 26
e 4 29
e 4 30
e 4 31
e 4 37
e 4 38
e 4 41
e 4 42
e 4 44
e 4 45
e 4 46
e 4 47
e 4 50
e 4 52
e 4 55
e 4 56
e 4 57
e 4 58
e 4 62
e 4 64
e 4 65
e 4 66
e 4 70
e 4 72
e 4 73
e 4 75
e 4 78
e 4 81
e 4 83
e 4 84
e 4 86
e 4 88
e 4 89
e 4 90
e 4 92
e 4 93
e 4 95
e 4 97
e 4 99
e 4 100
e 5 6
e 5 9
e 5 13
e 5 16
e 5 18
e 5 20
e 5 21
e 5 24
e 5 27
e 5 33
e 5 34
e 5 36
e 5 39
e 5 40
e 5 41
e 5 42
e 5 43
e 5 46
e 5 48
e 5 49
e 5 51
e 5 54
e 5 55
e 5 56
e 5 58
e 5 59
e 5 60
e 5 61
e 5 62
e 5 63
e 5 68
e 5 73
e 5 76
e 5 77
e 5 78
e 5 87
e 5 88
e 5 89
e 5 92
e 5 94
e 5 99
e 6 8
e 6 9
e 6 11
e 6 13
e 6 14
e 6 19
e 6 23
e 6 26
e 6 27
e 6 28
e 6 30
e 6 31
e 6 33
e 6 35
e 6 36
e 6 37
e 6 38
e 6 39
e 6 40
e 6 41
e 6 42
e 6 43
e 6 44
e 6 46
e 6 47
e 6 50
e 6 51
e 6 54
e 6 55
e 6 56
e 6 58
e 6 62
e 6 66
e 6 68
e 6 69
e 6 70
e 6 71
e 6 72
e 6 76
e 6 77
e 6 78
e 6 79
e 6 80
e 6 81
e 6 83
e 6 85
e 6 88
e 6 90
e 6 91
e 6 92
e 6 94
e 6 98
e 6 99
e 6 100
e 7 8
e 7 9
e 7 10
e 7 11
e 7 14
e 7 15
e 7 20
e 7 22
e 7 23
e 7 24
e 7 25
e 7 26
e 7 30
e 7 31
e 7 34
e 7 35
e 7 36
e 7 37
e 7 39
e 7 40
e 7 43
e 7 47
e 7 48
e 7 53
e 7 54
e 7 56
e 7 57
e 7 60
e 7 62
e 7 63
e 7 67
e 7 68
e 7 71
e 7 72
e 7 76
e 7 78
e 7 79
e 7 81
e 7 83
e 7 84
e 7 86
e 7 91
e 7 95
e 7 96
e 7 98
e 7 100
e 8 9
e 8 12
e 8 13
e 8 14
e 8 16
e 8 17
e 8 20
e 8 23
e 8 26
e 8 27
e 8 28
e 8 31
e 8 32
e 8 35
e 8 41
e 8 42
e 8 43
e 8 44
e 8 48
e 8 49
e 8 50
e 8 52
e 8 55
e 8 57
e 8 64
e 8 72
e 8 73
e 8 76
e 8 77
e 8 78
e 8 80
e 8 83
e 8 85
e 8 88
e 8 90
e 8 92
e 8 93
e 8 95
e 8 96
e 8 98
e 8 99
e 9 14
e 9 17
e 9 19
e 9 20
e 9 21
e 9 24
e 9 27
e 9 28
e 9 31
e 9 32
e 9 33
e 9 34
e 9 35
e 9 40
e 9 41
e 9 44
e 9 47
e 9 49
e 9 51
e 9 52
e 9 54
e 9 60
e 9 61
e 9 64
e 9 67
e 9 70
e 9 74
e 9 80
e 9 85
e 9 87
e 9 90
e 9 91
e 9 92
e 9 94
e 9 98
e 9 100
e 10 14
e 10 16
e 10 19
e 10 21
e 10 24
e 10 25
e 10 26
e 10 28
e 10 29
e 10 31
e 10 32
e 10 37
e 10 38
e 10 40
e 10 41
e 10 47
e 10 48
e 10 50
e 10 53
e 10 54
e 10 55
e 10 56
e 10 57
e 10 58
e 10 59
e 10 60
e 10 62
e 10 64
e 10 70
e 10 72
e 10 79
e 10 82
e 10 85
e 10 86
e 10 89
e 10 95
e 10 96
e 10 99
e 11 15
e 11 17
e 11 19
e 11 21
e 11 23
e 11 24
e 11 25
e 11 27
e 11 28
e 11 29
e 11 31
e 11 33
e 11 34
e 11 37
e 11 39
e 11 41
e 11 42
e 11 44
e 11 48
e 11 49
e 11 51
e 11 54
e 11 55
e 11 57
e 11 58
e 11 61
e 11 63
e 11 64
e 11 67
e 11 68
e 11 71
e 11 75
e 11 76
e 11 81
e 11 83
e 11 86
e 11 91
e 11 95
e 11 98
e 11 99
e 12 14
e 12 15
e 12 16
e 12 18
e 12 19
e 12 22
e 12 24
e 12 25
e 12 27
e 12 33
e 12 34
e 12 35
e 12 40
e 12 41
e 12 44
e 12 46
e 12 49
e 12 50
e 12 51
e 12 56
e 12 57
e 12 60
e 12 62
e 12 63
e 12 65
e 12 69
e 12 70
e 12 73
e 12 75
e 12 77
e 12 79
e 12 80
e 12 83
e 12 84
e 12 85
e 12 86
e 12 89
e 12 91
e 12 92
e 12 93
e 12 94
e 12 96
e 12 97
e 12 98
e 12 99
e 13 16
e 13 17
e 13 19
e 13 20
e 13 26
e 13 27
e 13 28
e 13 29
e 13 30
e 13 31
e 13 33
e 13 35
e 13 36
e 13 44
e 13 46
e 13 47
e 13 50
e 13 52
e 13 53
e 13 56
e 13 59
e 13 61
e 13 64
e 13 66
e 13 67
e 13 70
e 13 73
e 13 75
e 13 81
e 13 85
e 13 87
e 13 88
e 13 90
e 13 95
e 13 96
e 13 97
e 13 98
e 13 99
e 14 16
e 14 18
e 14 20
e 14 22
e 14 23
e 14 25
e 14 27
e 14 28
e 14 32
e 14 33
e 14 38
e 14 40
e 14 43
e 14 45
e 14 50
e 14 51
e 14 53
e 14 55
e 14 56
e 14 57
e 14 58
e 14 59
e 14 61
e 14 62
e 14 65
e 14 66
e 14 67
e 14 68
e 14 69
e 14 70
e 14 71
e 14 72
e 14 74
e 14 75
e 14 76
e 14 79
e 14 80
e 14 81
e 14 85
e 14 89
e 14 91
e 14 92
e 14 98
e 14 100
e 15 17
e 15 19
e 15 20
e 15 23
e 15 25
e 15 26
e 15 28
e 15 29
e 15 30
e 15 31
e 15 32
e 15 33
e 15 35
e 15 36
e 15 38
e 15 39
e 15 43
e 15 45
e 15 47
e 15 52
e 15 56
e 15 57
e 15 59
e 15 62
e 15 64
e 15 66
e 15 69
e 15 70
e 15 72
e 15 73
e 15 74
e 15 75
e 15 77
e 15 78
e 15 79
e 15 82
e 15 83
e 15 85
e 15 86
e 15 87
e 15 89
e 15 90
e 15 91
e 15 92
e 15 93
e 15 94
e 15 95
e 15 97
e 15 98
e 15 100
e 16 19
e 16 20
e 16 25
e 16 26
e 16 28
e 16 31
e 16 32
e 16 34
e 16 35
e 16 38
e 16 41
e 16 42
e 16 43
e 16 49
e 16 52
e 16 58
e 16 60
e 16 61
e 16 62
e 16 67
e 16 70
e 16 72
e 16 74
e 16 75
e 16 76
e 16 79
e 16 81
e 16 82
e 16 83
e 16 84
e 16 85
e 16 87
e 16 93
e 16 94
e 16 96
e 16 97
e 16 98
e 16 100
e 17 18
e 17 20
e 17 23
e 17 25
e 17 27
e 17 28
e 17 33
e 17 34
e 17 39
e 17 44
e 17 45
e 17 46
e 17 47
e 17 49
e 17 51
e 17 52
e 17 53
e 17 54
e 17 56
e 17 58
e 17 60
e 17 61
e 17 62
e 17 63
e 17 64
e 17 68
e 17 69
e 17 70
e 17 71
e 17 72
e 17 74
e 17 78
e 17 80
e 17 81
e 17 82
e 17 84
e 17 85
e 17 87
e 17 92
e 17 94
e 17 97
e 18 19
e 18 23
e 18 24
e 18 27
e 18 28
e 18 30
e 18 33
e 18 38
e 18 42
e 18 43
e 18 44
e 18 45
e 18 46
e 18 50
e 18 52
e 18 56
e 18 61
e 18 64
e 18 67
e 18 68
e 18 69
e 18 72
e 18 76
e 18 80
e 18 86
e 18 89
e 18 91
e 18 93
e 18 95
e 18 98
e 18 99
e 18 100
e 19 21
e 19 22
e 19 24
e 19 29
e 19 38
e 19 39
e 19 41
e 19 42
e 19 45
e 19 46
e 19 47
e 19 48
e 19 50
e 19 52
e 19 53
e 19 54
e 19 55
e 19 56
e 19 57
e 19 58
e 19 60
e 19 61
e 19 65
e 19 66
e 19 69
e 19 70
e 19 71
e 19 73
e 19 76
e 19 77
e 19 81
e 19 86
e 19 88
e 19 89
e 19 95
e 19 96
e 19 97
e 19 99
e 20 21
e 20 22
e 20 24
e 20 30
e 20 34
e 20 35
e 20 37
e 20 38
e 20 40
e 20 41
e 20 42
e 20 43
e 20 44
e 20 45
e 20 46
e 20 49
e 20 51
e 20 52
e 20 55
e 20 58
e 20 60
e 20 63
e 20 64
e 20 67
e 20 69
e 20 70
e 20 72
e 20 76
e 20 78
e 20 79
e 20 81
e 20 82
e 20 84
e 20 87
e 20 96
e 20 100
e 21 24
e 21 26
e 21 27
e 21 28
e 21 29
e 21 31
e 21 32
e 21 34
e 21 37
e 21 38
e 21 40
e 21 41
e 21 43
e 21 45
e 21 47
e 21 52
e 21 53
e 21 55
e 21 57
e 21 58
e 21 60
e 21 62
e 21 67
e 21 69
e 21 74
e 21 76
e 21 78
e 21 83
e 21 88
e 21 90
e 21 92
e 21 95
e 21 97
e 21 98
e 21 99
e 21 100
e 22 24
e 22 27
e 22 28
e 22 29
e 22 30
e 22 31
e 22 33
e 22 36
e 22 38
e 22 41
e 22 42
e 22 43
e 22 44
e 22 45
e 22 48
e 22 51
e 22 54
e 22 55
e 22 56
e 22 57
e 22 58
e 22 61
e 22 69
e 22 72
e 22 74
e 22 75
e 22 76
e 22 77
e 22 78
e 22 79
e 22 82
e 22 84
e 22 89
e 22 90
e 22 93
e 22 94
e 22 98
e 22 100
e 23 24
e 23 25
e 23 28
e 23 31
e 23 33
e 23 34
e 23 36
e 23 37
e 23 38
e 23 39
e 23 43
e 23 46
e 23 47
e 23 50
e 23 52
e 23 53
e 23 54
e 23 60
e 23 61
e 23 62
e 23 63
e 23 68
e 23 73
e 23 77
e 23 78
e 23 82
e 23 87
e 23 89
e 23 95
e 23 96
e 23 98
e 23 99
e 24 26
e 24 28
e 24 30
e 24 34
e 24 35
e 24 36
e 24 40
e 24 41
e 24 42
e 24 44
e 24 45
e 24 46
e 24 48
e 24 50
e 24 56
e 24 60
e 24 61
e 24 63
e 24 66
e 24 69
e 24 72
e 24 73
e 24 74
e 24 75
e 24 76
e 24 79
e 24 83
e 24 84
e 24 88
e 24 92
e 24 93
e 24 95
e 24 96
e 24 97
e 24 100
e 25 26
e 25 35
e 25 36
e 25 38
e 25 39
e 25 41
e 25 43
e 25 47
e 25 48
e 25 53
e 25 54
e 25 58
e 25 62
e 25 73
e 25 74
e 25 76
e 25 78
e 25 80
e 25 81
e 25 82
e 25 85
e 25 86
e 25 88
e 25 90
e 25 91
e 25 92
e 25 93
e 25 95
e 25 96
e 25 97
e 25 100
e 26 27
e 26 29
e 26 34
e 26 35
e 26 36
e 26 37
e 26 39
e 26 43
e 26 45
e 26 47
e 26 48
e 26 53
e 26 55
e 26 58
e 26 59
e 26 62
e 26 72
e 26 73
e 26 74
e 26 76
e 26 77
e 26 79
e 26 82
e 26 87
e 26 88
e 26 90
e 26 93
e 26 94
e 26 95
e 26 96
e 26 97
e 26 98
e 26 100
e 27 29
e 27 30
e 27 31
e 27 33
e 27 35
e 27 38
e 27 41
e 27 48
e 27 49
e 27 50
e 27 51
e 27 52
e 27 54
e 27 55
e 27 57
e 27 58
e 27 59
e 27 61
e 27 63
e 27 66
e 27 67
e 27 72
e 27 85
e 27 89
e 27 90
e 27 93
e 27 96
e 27 99
e 27 100
e 28 29
e 28 36
e 28 37
e 28 43
e 28 44
e 28 46
e 28 47
e 28 48
e 28 49
e 28 50
e 28 55
e 28 56
e 28 58
e 28 59
e 28 63
e 28 64
e 28 66
e 28 70
e 28 73
e 28 75
e 28 76
e 28 83
e 28 86
e 28 90
e 28 95
e 28 96
e 28 98
e 29 37
e 29 43
e 29 45
e 29 46
e 29 47
e 29 49
e 29 50
e 29 51
e 29 52
e 29 53
e 29 56
e 29 57
e 29 58
e 29 64
e 29 65
e 29 67
e 29 70
e 29 72
e 29 73
e 29 78
e 29 81
e 29 82
e 29 83
e 29 84
e 29 89
e 29 91
e 29 93
e 29 94
e 29 100
e 30 31
e 30 33
e 30 35
e 30 37
e 30 38
e 30 42
e 30 44
e 30 45
e 30 46
e 30 49
e 30 50
e 30 51
e 30 52
e 30 53
e 30 54
e 30 55
e 30 57
e 30 58
e 30 59
e 30 60
e 30 61
e 30 67
e 30 68
e 30 69
e 30 73
e 30 75
e 30 79
e 30 81
e 30 82
e 30 86
e 30 87
e 30 89
e 30 90
e 30 92
e 30 93
e 30 97
e 31 33
e 31 35
e 31 39
e 31 40
e 31 41
e 31 43
e 31 46
e 31 56
e 31 57
e 31 58
e 31 59
e 31 62
e 31 63
e 31 64
e 31 67
e 31 70
e 31 71
e 31 72
e 31 73
e 31 74
e 31 76
e 31 77
e 31 80
e 31 84
e 31 85
e 31 86
e 31 87
e 31 88
e 31 89
e 31 91
e 31 93
e 31 96
e 31 99
e 31 100
e 32 39
e 32 40
e 32 41
e 32 43
e 32 44
e 32 45
e 32 46
e 32 47
e 32 53
e 32 55
e 32 58
e 32 59
e 32 60
e 32 61
e 32 63
e 32 64
e 32 66
e 32 67
e 32 68
e 32 70
e 32 71
e 32 74
e 32 75
e 32 76
e 32 78
e 32 82
e 32 83
e 32 86
e 32 88
e 32 92
e 32 93
e 32 94
e 32 96
e 32 97
e 33 35
e 33 36
e 33 37
e 33 40
e 33 43
e 33 44
e 33 45
e 33 46
e 33 48
e 33 50
e 33 54
e 33 55
e 33 58
e 33 59
e 33 62
e 33 65
e 33 69
e 33 70
e 33 71
e 33 72
e 33 74
e 33 75
e 33 80
e 33 83
e 33 84
e 33 86
e 33 88
e 33 89
e 33 91
e 33 100
e 34 35
e 34 36
e 34 39
e 34 42
e 34 43
e 34 44
e 34 45
e 34 47
e 34 49
e 34 53
e 34 55
e 34 57
e 34 59
e 34 60
e 34 61
e 34 62
e 34 63
e 34 68
e 34 69
e 34 71
e 34 76
e 34 77
e 34 78
e 34 79
e 34 81
e 34 83
e 34 84
e 34 85
e 34 87
e 34 92
e 34 96
e 34 97
e 34 99
e 35 39
e 35 41
e 35 44
e 35 46
e 35 47
e 35 49
e 35 50
e 35 51
e 35 53
e 35 54
e 35 55
e 35 56
e 35 61
e 35 64
e 35 66
e 35 67
e 35 74
e 35 76
e 35 79
e 35 81
e 35 82
e 35 84
e 35 85
e 35 86
e 35 87
e 35 88
e 35 90
e 35 92
e 35 94
e 35 98
e 35 99
e 35 100
e 36 37
e 36 38
e 36 40
e 36 41
e 36 43
e 36 44
e 36 45
e 36 49
e 36 50
e 36 52
e 36 55
e 36 58
e 36 59
e 36 60
e 36 62
e 36 63
e 36 64
e 36 65
e 36 67
e 36 68
e 36 70
e 36 71
e 36 72
e 36 73
e 36 81
e 36 83
e 36 84
e 36 88
e 36 89
e 36 92
e 36 94
e 36 97
e 36 99
e 36 100
e 37 39
e 37 40
e 37 43
e 37 46
e 37 47
e 37 49
e 37 52
e 37 53
e 37 54
e 37 56
e 37 57
e 37 58
e 37 59
e 37 61
e 37 62
e 37 64
e 37 66
e 37 69
e 37 71
e 37 72
e 37 74
e 37 76
e 37 78
e 37 79
e 37 86
e 37 87
e 37 88
e 37 90
e 37 91
e 38 42
e 38 45
e 38 46
e 38 48
e 38 51
e 38 53
e 38 54
e 38 56
e 38 57
e 38 61
e 38 65
e 38 66
e 38 68
e 38 71
e 38 73
e 38 74
e 38 75
e 38 76
e 38 79
e 38 81
e 38 87
e 38 89
e 38 90
e 38 91
e 38 92
e 38 96
e 38 97
e 39 40
e 39 41
e 39 45
e 39 46
e 39 50
e 39 52
e 39 53
e 39 54
e 39 57
e 39 59
e 39 60
e 39 64
e 39 66
e 39 67
e 39 68
e 39 70
e 39 72
e 39 77
e 39 78
e 39 79
e 39 81
e 39 82
e 39 83
e 39 86
e 39 90
e 39 92
e 39 94
e 39 95
e 39 98
e 39 99
e 39 100
e 40 41
e 40 42
e 40 44
e 40 50
e 40 59
e 40 60
e 40 61
e 40 62
e 40 64
e 40 67
e 40 69
e 40 70
e 40 71
e 40 72
e 40 73
e 40 76
e 40 78
e 40 79
e 40 80
e 40 81
e 40 83
e 40 85
e 40 90
e 40 91
e 40 93
e 40 94
e 40 95
e 40 98
e 40 99
e 41 42
e 41 50
e 41 52
e 41 54
e 41 55
e 41 57
e 41 58
e 41 59
e 41 60
e 41 61
e 41 63
e 41 64
e 41 65
e 41 66
e 41 71
e 41 73
e 41 75
e 41 76
e 41 80
e 41 82
e 41 87
e 41 88
e 41 90
e 41 92
e 41 97
e 41 98
e 41 99
e 42 43
e 42 44
e 42 49
e 42 53
e 42 58
e 42 59
e 42 62
e 42 64
e 42 69
e 42 73
e 42 77
e 42 78
e 42 79
e 42 80
e 42 81
e 42 82
e 42 83
e 42 84
e 42 85
e 42 86
e 42 91
e 42 94
e 42 95
e 42 98
e 42 99
e 43 44
e 43 46
e 43 49
e 43 50
e 43 52
e 43 62
e 43 63
e 43 64
e 43 65
e 43 66
e 43 67
e 43 68
e 43 70
e 43 71
e 43 74
e 43 75
e 43 77
e 43 79
e 43 82
e 43 84
e 43 88
e 43 90
e 43 93
e 43 94
e 43 95
e 43 97
e 43 100
e 44 46
e 44 51
e 44 52
e 44 54
e 44 55
e 44 56
e 44 60
e 44 63
e 44 64
e 44 67
e 44 68
e 44 70
e 44 72
e 44 74
e 44 76
e 44 78
e 44 79
e 44 81
e 44 82
e 44 86
e 44 87
e 44 89
e 44 90
e 44 91
e 44 93
e 44 95
e 44 98
e 45 48
e 45 49
e 45 50
e 45 51
e 45 55
e 45 59
e 45 60
e 45 62
e 45 63
e 45 64
e 45 71
e 45 72
e 45 74
e 45 76
e 45 79
e 45 80
e 45 83
e 45 84
e 45 85
e 45 86
e 45 89
e 45 92
e 45 95
e 45 98
e 45 99
e 45 100
e 46 51
e 46 53
e 46 55
e 46 60
e 46 63
e 46 64
e 46 71
e 46 74
e 46 75
e 46 81
e 46 84
e 46 86
e 46 87
e 46 89
e 46 91
e 46 95
e 46 99
e 46 100
e 47 48
e 47 49
e 47 52
e 47 54
e 47 56
e 47 58
e 47 59
e 47 61
e 47 64
e 47 70
e 47 71
e 47 79
e 47 81
e 47 84
e 47 88
e 47 91
e 47 94
e 47 96
e 47 97
e 47 98
e 47 100
e 48 49
e 48 50
e 48 52
e 48 53
e 48 57
e 48 58
e 48 66
e 48 68
e 48 71
e 48 72
e 48 74
e 48 75
e 48 77
e 48 79
e 48 83
e 48 85
e 48 87
e 48 92
e 48 100
e 49 50
e 49 52
e 49 53
e 49 56
e 49 57
e 49 58
e 49 59
e 49 60
e 49 62
e 49 66
e 49 67
e 49 69
e 49 74
e 49 75
e 49 76
e 49 79
e 49 83
e 49 87
e 49 88
e 49 89
e 49 90
e 49 93
e 49 95
e 49 100
e 50 52
e 50 53
e 50 57
e 50 59
e 50 60
e 50 61
e 50 64
e 50 68
e 50 69
e 50 70
e 50 71
e 50 73
e 50 74
e 50 75
e 50 76
e 50 77
e 50 78
e 50 79
e 50 80
e 50 83
e 50 84
e 50 86
e 50 89
e 50 90
e 50 93
e 50 96
e 51 54
e 51 55
e 51 62
e 51 65
e 51 69
e 51 71
e 51 72
e 51 78
e 51 83
e 51 84
e 51 85
e 51 87
e 51 89
e 51 90
e 51 92
e 51 95
e 51 98
e 51 99
e 51 100
e 52 55
e 52 56
e 52 57
e 52 58
e 52 61
e 52 62
e 52 65
e 52 69
e 52 70
e 52 72
e 52 76
e 52 78
e 52 82
e 52 83
e 52 84
e 52 85
e 52 89
e 52 91
e 52 95
e 52 96
e 52 98
e 52 100
e 53 56
e 53 60
e 53 61
e 53 63
e 53 64
e 53 65
e 53 66
e 53 67
e 53 70
e 53 73
e 53 74
e 53 76
e 53 77
e 53 79
e 53 83
e 53 85
e 53 86
e 53 88
e 53 95
e 53 96
e 53 100
e 54 55
e 54 56
e 54 62
e 54 64
e 54 66
e 54 67
e 54 68
e 54 69
e 54 70
e 54 74
e 54 75
e 54 76
e 54 77
e 54 78
e 54 81
e 54 82
e 54 83
e 54 84
e 54 85
e 54 91
e 54 92
e 54 93
e 54 96
e 54 97
e 54 99
e 55 58
e 55 60
e 55 66
e 55 69
e 55 71
e 55 73
e 55 74
e 55 76
e 55 77
e 55 78
e 55 80
e 55 83
e 55 86
e 55 90
e 55 91
e 55 93
e 55 94
e 55 96
e 55 100
e 56 59
e 56 60
e 56 61
e 56 66
e 56 68
e 56 71
e 56 73
e 56 77
e 56 78
e 56 79
e 56 87
e 56 91
e 56 94
e 56 95
e 56 96
e 56 99
e 57 58
e 57 59
e 57 60
e 57 61
e 57 67
e 57 68
e 57 69
e 57 70
e 57 71
e 57 72
e 57 75
e 57 80
e 57 83
e 57 84
e 57 85
e 57 87
e 57 90
e 57 91
e 57 92
e 57 94
e 57 95
e 57 100
e 58 61
e 58 63
e 58 65
e 58 67
e 58 68
e 58 69
e 58 70
e 58 72
e 58 73
e 58 74
e 58 76
e 58 78
e 58 79
e 58 80
e 58 81
e 58 85
e 58 91
e 58 93
e 58 95
e 58 96
e 59 64
e 59 65
e 59 66
e 59 71
e 59 72
e 59 73
e 59 74
e 59 76
e 59 79
e 59 88
e 59 89
e 60 70
e 60 71
e 60 73
e 60 75
e 60 76
e 60 77
e 60 79
e 60 82
e 60 92
e 60 95
e 60 96
e 60 97
e 61 63
e 61 67
e 61 70
e 61 73
e 61 75
e 61 76
e 61 79
e 61 82
e 61 87
e 61 88
e 61 91
e 61 93
e 61 94
e 62 63
e 62 64
e 62 66
e 62 67
e 62 69
e 62 70
e 62 75
e 62 76
e 62 77
e 62 78
e 62 79
e 62 81
e 62 83
e 62 86
e 62 87
e 62 89
e 62 90
e 62 93
e 62 95
e 63 64
e 63 65
e 63 66
e 63 74
e 63 77
e 63 80
e 63 82
e 63 83
e 63 84
e 63 86
e 63 87
e 63 88
e 63 89
e 63 90
e 63 91
e 63 92
e 63 93
e 63 96
e 63 98
e 63 100
e 64 65
e 64 66
e 64 70
e 64 71
e 64 73
e 64 74
e 64 78
e 64 79
e 64 80
e 64 82
e 64 85
e 64 87
e 64 88
e 64 92
e 64 93
e 64 94
e 64 97
e 64 98
e 64 99
e 65 68
e 65 69
e 65 70
e 65 72
e 65 75
e 65 76
e 65 79
e 65 80
e 65 81
e 65 83
e 65 85
e 65 86
e 65 87
e 65 88
e 65 89
e 65 93
e 65 95
e 65 96
e 65 97
e 65 99
e 66 68
e 66 69
e 66 70
e 66 72
e 66 78
e 66 79
e 66 80
e 66 82
e 66 83
e 66 85
e 66 89
e 66 90
e 66 92
e 66 93
e 66 96
e 66 97
e 66 99
e 66 100
e 67 68
e 67 73
e 67 77
e 67 81
e 67 82
e 67 84
e 67 87
e 67 88
e 67 89
e 67 90
e 67 91
e 67 93
e 67 98
e 67 99
e 67 100
e 68 69
e 68 76
e 68 77
e 68 78
e 68 80
e 68 81
e 68 82
e 68 83
e 68 90
e 68 94
e 68 95
e 68 98
e 68 99
e 68 100
e 69 70
e 69 72
e 69 75
e 69 78
e 69 80
e 69 82
e 69 86
e 69 87
e 69 88
e 69 91
e 69 92
e 69 95
e 69 98
e 69 99
e 70 71
e 70 74
e 70 80
e 70 82
e 70 83
e 70 84
e 70 85
e 70 88
e 70 93
e 70 94
e 70 95
e 70 96
e 70 98
e 70 99
e 70 100
e 71 74
e 71 75
e 71 76
e 71 81
e 71 83
e 71 84
e 71 85
e 71 86
e 71 89
e 71 91
e 71 92
e 71 94
e 71 95
e 71 96
e 71 98
e 72 73
e 72 76
e 72 77
e 72 80
e 72 82
e 72 84
e 72 90
e 72 91
e 72 92
e 72 93
e 72 94
e 72 96
e 72 100
e 73 74
e 73 76
e 73 81
e 73 83
e 73 84
e 73 85
e 73 93
e 73 94
e 73 95
e 73 98
e 73 100
e 74 76
e 74 80
e 74 86
e 74 90
e 74 93
e 74 94
e 74 96
e 74 98
e 75 77
e 75 79
e 75 81
e 75 84
e 75 89
e 75 94
e 75 97
e 75 98
e 75 100
e 76 77
e 76 78
e 76 82
e 76 86
e 76 89
e 76 91
e 76 93
e 76 94
e 76 96
e 76 97
e 77 79
e 77 81
e 77 82
e 77 83
e 77 90
e 77 91
e 77 94
e 77 96
e 77 97
e 77 98
e 77 99
e 78 80
e 78 81
e 78 84
e 78 85
e 78 86
e 78 87
e 78 88
e 78 89
e 78 90
e 78 93
e 78 94
e 78 96
e 78 98
e 78 99
e 79 86
e 79 89
e 79 90
e 79 91
e 79 92
e 79 95
e 79 98
e 80 82
e 80 83
e 80 89
e 80 92
e 80 93
e 80 97
e 80 98
e 80 99
e 81 83
e 81 84
e 81 85
e 81 86
e 81 90
e 81 91
e 81 92
e 81 93
e 81 94
e 81 96
e 81 97
e 81 98
e 81 100
e 82 83
e 82 85
e 82 87
e 82 89
e 82 92
e 82 94
e 82 98
e 82 99
e 82 100
e 83 85
e 83 86
e 83 87
e 83 88
e 83 90
e 83 92
e 83 94
e 83 95
e 83 99
e 84 87
e 84 88
e 84 91
e 84 92
e 84 93
e 84 96
e 84 98
e 84 99
e 85 90
e 85 91
e 85 93
e 85 95
e 85 96
e 85 97
e 85 100
e 86 88
e 86 90
e 86 91
e 86 96
e 86 98
e 86 99
e 86 100
e 87 89
e 87 91
e 87 95
e 87 96
e 87 97
e 87 98
e 87 100
e 88 89
e 88 93
e 88 95
e 88 96
e 88 98
e 88 99
e 89 90
e 89 93
e 89 95
e 89 97
e 90 91
e 90 92
e 90 95
e 90 97
e 90 98
e 90 99
e 91 92
e 91 93
e 91 96
e 91 97
e 91 98
e 91 99
e 92 93
e 92 94
e 92 95
e 92 96
e 93 94
e 93 95
e 94 95
e 94 96
e 94 97
e 94 98
e 95 96
e 95 98
e 95 100
e 97 99
e 98 99
e 98 100
e 99 100
